	209103.0	3000.0
	219999.0	0.0
	219999.0	0.0


	175038.0	18000.0
	175038.0	18000.0


	186174.0	18000.0
	190523.0	15000.0
	196644.0	12000.0
	200774.0	6000.0


	172626.0	27000.0
	175038.0	18000.0
	182728.0	15000.0
	184431.0	9000.0


	188273.0	0.0


	175038.0	18000.0
	175038.0	18000.0
	189993.0	0.0


	181867.0	27000.0
	184914.0	18000.0
	189993.0	0.0
	189993.0	0.0


	209103.0	3000.0
	209103.0	3000.0


	194112.0	0.0


	194112.0	0.0


